%SETS
JOBS     = 1..2;
MACHINES = 1..21;
SPEED    = 1;

time               = array3d(JOBS,MACHINES,1..SPEED,[81, 51, 80, 20, 67, 22, 95, 56, 47, 33, 79, 51, 61, 11, 65, 65, 65, 94, 71, 42, 49, 72, 15, 70, 70, 28, 21, 38, 42, 61, 49, 98, 19, 28, 24, 68, 32, 51, 31, 24, 19, 69]);
energy             = array3d(JOBS,MACHINES,1..SPEED,[44, 60, 44, 81, 51, 80, 38, 57, 62, 71, 45, 60, 54, 89, 52, 52, 52, 39, 49, 65, 61, 48, 86, 49, 49, 75, 81, 68, 65, 54, 61, 37, 82, 75, 78, 50, 72, 60, 73, 78, 82, 50]);
precedence         = array2d(JOBS,MACHINES,[16,12,11,17,10,19,1,4,2,18,0,9,3,8,7,15,13,20,5,14,6,19,7,16,13,8,0,3,4,2,20,18,17,9,11,10,5,14,12,6,1,15]);